n = 11;
k = 3;
maxsize = 11;
nML = 2;
nCL = 2;
deg = [4, 4, 4, 2, 4, 1, 2, 2, 3, 3, 3];
ML = array2d(1..2, 1..2, [10, 5, 9, 8]);
CL = array2d(1..2, 1..2, [2, 6, 4, 11]);
A = array2d(1..11, 1..11, [ 0, 1, 1, 0, 1, 0, 0, 0, 1, 0, 0, 1, 0, 0, 0, 0, 1, 0, 0, 1, 1, 0, 1, 0, 0, 0, 1, 0, 1, 0, 0, 1, 0, 0, 0, 0, 0, 0, 0, 0, 0, 0, 1, 1, 1, 0, 1, 0, 0, 0, 0, 0, 1, 0, 1, 0, 1, 0, 0, 0, 0, 0, 0, 0, 0, 0, 0, 0, 1, 0, 0, 0, 0, 1, 0, 0, 0, 0, 0, 0, 0, 0, 0, 1, 0, 0, 0, 1, 1, 1, 0, 0, 1, 0, 0, 0, 0, 0, 0, 0, 1, 1, 1, 0, 0, 0, 0, 0, 0, 0, 0, 0, 0, 1, 1, 0, 0, 1, 0, 0, 0 ]);
W = array2d(1..11, 1..11, [ 1, 1, 3, -2, 2, 0, 9, -1, -2, -2, 5, -4, -9, 3, 10, 10, -6, -3, 1, -9, 8, -3, -9, 7, -4, 3, -1, 10, -2, 9, -2, -5, 9, 5, -3, -6, -1, -10, 0, -6, 7, -5, -2, 3, 7, 8, 9, -10, -9, 4, -3, 2, -6, -5, -10, 6, 9, 5, -5, 4, -8, -8, 9, -8, -5, 9, 1, 10, -5, -9, -9, -5, -7, 10, -10, 6, 3, 4, -6, -4, 3, 1, -1, 9, -9, -4, 10, 10, -2, 9, -8, -7, 2, 1, 3, 1, 1, -8, -10, -3, -1, 1, 8, 0, -10, -7, -7, -3, 3, -6, 4, -4, -10, -2, 1, -4, -7, -4, 5, 9, -5 ]);